p tw 528 43521 257 
1 258 
1 259 
1 260 
1 261 
1 262 
1 263 
1 264 
1 265 
1 266 
1 267 
1 268 
1 269 
1 270 
1 271 
1 272 
1 273 
2 257 
2 274 
2 275 
2 276 
2 277 
2 278 
2 279 
2 280 
2 281 
2 282 
2 283 
2 284 
2 285 
2 286 
2 287 
2 288 
2 289 
3 257 
3 290 
3 291 
3 292 
3 293 
3 294 
3 295 
3 296 
3 297 
3 298 
3 299 
3 300 
3 301 
3 302 
3 303 
3 304 
3 305 
4 257 
4 306 
4 307 
4 308 
4 309 
4 310 
4 311 
4 312 
4 313 
4 314 
4 315 
4 316 
4 317 
4 318 
4 319 
4 320 
4 321 
5 257 
5 322 
5 323 
5 324 
5 325 
5 326 
5 327 
5 328 
5 329 
5 330 
5 331 
5 332 
5 333 
5 334 
5 335 
5 336 
5 337 
6 257 
6 338 
6 339 
6 340 
6 341 
6 342 
6 343 
6 344 
6 345 
6 346 
6 347 
6 348 
6 349 
6 350 
6 351 
6 352 
6 353 
7 257 
7 354 
7 355 
7 356 
7 357 
7 358 
7 359 
7 360 
7 361 
7 362 
7 363 
7 364 
7 365 
7 366 
7 367 
7 368 
7 369 
8 257 
8 370 
8 371 
8 372 
8 373 
8 374 
8 375 
8 376 
8 377 
8 378 
8 379 
8 380 
8 381 
8 382 
8 383 
8 384 
8 385 
9 257 
9 386 
9 387 
9 388 
9 389 
9 390 
9 391 
9 392 
9 393 
9 394 
9 395 
9 396 
9 397 
9 398 
9 399 
9 400 
9 401 
10 257 
10 402 
10 403 
10 404 
10 405 
10 406 
10 407 
10 408 
10 409 
10 410 
10 411 
10 412 
10 413 
10 414 
10 415 
10 416 
10 417 
11 257 
11 418 
11 419 
11 420 
11 421 
11 422 
11 423 
11 424 
11 425 
11 426 
11 427 
11 428 
11 429 
11 430 
11 431 
11 432 
11 433 
12 257 
12 434 
12 435 
12 436 
12 437 
12 438 
12 439 
12 440 
12 441 
12 442 
12 443 
12 444 
12 445 
12 446 
12 447 
12 448 
12 449 
13 257 
13 450 
13 451 
13 452 
13 453 
13 454 
13 455 
13 456 
13 457 
13 458 
13 459 
13 460 
13 461 
13 462 
13 463 
13 464 
13 465 
14 257 
14 466 
14 467 
14 468 
14 469 
14 470 
14 471 
14 472 
14 473 
14 474 
14 475 
14 476 
14 477 
14 478 
14 479 
14 480 
14 481 
15 257 
15 482 
15 483 
15 484 
15 485 
15 486 
15 487 
15 488 
15 489 
15 490 
15 491 
15 492 
15 493 
15 494 
15 495 
15 496 
15 497 
16 257 
16 498 
16 499 
16 500 
16 501 
16 502 
16 503 
16 504 
16 505 
16 506 
16 507 
16 508 
16 509 
16 510 
16 511 
16 512 
16 513 
17 258 
17 289 
17 297 
17 317 
17 323 
17 342 
17 359 
17 376 
17 388 
17 410 
17 427 
17 444 
17 453 
17 478 
17 495 
17 512 
17 514 
18 264 
18 275 
18 299 
18 310 
18 337 
18 349 
18 362 
18 370 
18 398 
18 407 
18 425 
18 448 
18 463 
18 468 
18 485 
18 508 
18 514 
19 268 
19 282 
19 292 
19 319 
19 327 
19 341 
19 355 
19 384 
19 393 
19 417 
19 430 
19 434 
19 454 
19 475 
19 493 
19 504 
19 514 
20 272 
20 279 
20 302 
20 309 
20 330 
20 351 
20 369 
20 380 
20 395 
20 403 
20 420 
20 440 
20 461 
20 473 
20 486 
20 498 
20 514 
21 265 
21 285 
21 290 
21 321 
21 326 
21 339 
21 357 
21 379 
21 396 
21 415 
21 424 
21 436 
21 455 
21 480 
21 490 
21 510 
21 514 
22 260 
22 287 
22 300 
22 314 
22 325 
22 343 
22 358 
22 382 
22 386 
22 413 
22 432 
22 441 
22 451 
22 472 
22 497 
22 507 
22 514 
23 266 
23 284 
23 303 
23 308 
23 336 
23 350 
23 360 
23 375 
23 397 
23 402 
23 421 
23 449 
23 459 
23 470 
23 489 
23 499 
23 514 
24 267 
24 278 
24 296 
24 307 
24 333 
24 353 
24 367 
24 377 
24 400 
24 405 
24 418 
24 446 
24 458 
24 476 
24 487 
24 500 
24 514 
25 269 
25 281 
25 305 
25 306 
25 331 
25 344 
25 366 
25 374 
25 394 
25 404 
25 419 
25 447 
25 464 
25 471 
25 492 
25 501 
25 514 
26 261 
26 286 
26 295 
26 320 
26 324 
26 348 
26 361 
26 383 
26 387 
26 411 
26 426 
26 438 
26 450 
26 481 
26 488 
26 509 
26 514 
27 270 
27 277 
27 304 
27 311 
27 335 
27 346 
27 365 
27 372 
27 392 
27 406 
27 428 
27 443 
27 465 
27 466 
27 483 
27 505 
27 514 
28 271 
28 276 
28 298 
28 316 
28 334 
28 352 
28 363 
28 373 
28 401 
28 409 
28 423 
28 445 
28 456 
28 467 
28 482 
28 502 
28 514 
29 273 
29 274 
29 301 
29 313 
29 328 
29 347 
29 368 
29 371 
29 399 
29 412 
29 422 
29 442 
29 462 
29 469 
29 484 
29 503 
29 514 
30 259 
30 280 
30 294 
30 315 
30 322 
30 345 
30 364 
30 385 
30 389 
30 416 
30 429 
30 439 
30 452 
30 479 
30 494 
30 506 
30 514 
31 262 
31 283 
31 291 
31 312 
31 329 
31 338 
31 356 
31 381 
31 391 
31 414 
31 433 
31 437 
31 460 
31 474 
31 496 
31 511 
31 514 
32 263 
32 288 
32 293 
32 318 
32 332 
32 340 
32 354 
32 378 
32 390 
32 408 
32 431 
32 435 
32 457 
32 477 
32 491 
32 513 
32 514 
33 258 
33 282 
33 302 
33 310 
33 331 
33 348 
33 365 
33 373 
33 399 
33 416 
33 433 
33 435 
33 455 
33 472 
33 489 
33 500 
33 515 
34 272 
34 275 
34 297 
34 319 
34 324 
34 344 
34 357 
34 381 
34 390 
34 402 
34 423 
34 442 
34 465 
34 476 
34 494 
34 507 
34 515 
35 264 
35 279 
35 292 
35 317 
35 329 
35 352 
35 358 
35 383 
35 389 
35 412 
35 419 
35 449 
35 458 
35 466 
35 491 
35 510 
35 515 
36 268 
36 289 
36 299 
36 309 
36 334 
36 338 
36 367 
36 374 
36 397 
36 408 
36 426 
36 439 
36 451 
36 480 
36 484 
36 505 
36 515 
37 273 
37 284 
37 293 
37 315 
37 326 
37 346 
37 361 
37 382 
37 388 
37 407 
37 418 
37 440 
37 464 
37 467 
37 493 
37 511 
37 515 
38 259 
38 288 
38 303 
38 313 
38 333 
38 343 
38 363 
38 372 
38 398 
38 410 
38 424 
38 434 
38 460 
38 481 
38 486 
38 501 
38 515 
39 262 
39 286 
39 298 
39 306 
39 337 
39 341 
39 360 
39 380 
39 400 
39 415 
39 427 
39 441 
39 452 
39 477 
39 483 
39 503 
39 515 
40 263 
40 280 
40 301 
40 308 
40 335 
40 339 
40 366 
40 377 
40 395 
40 417 
40 432 
40 444 
40 450 
40 474 
40 485 
40 502 
40 515 
41 265 
41 287 
41 304 
41 307 
41 328 
41 340 
41 369 
41 375 
41 394 
41 414 
41 429 
41 438 
41 453 
41 475 
41 482 
41 508 
41 515 
42 260 
42 285 
42 296 
42 311 
42 336 
42 345 
42 362 
42 371 
42 401 
42 411 
42 431 
42 437 
42 454 
42 478 
42 492 
42 498 
42 515 
43 266 
43 274 
43 294 
43 318 
43 325 
43 353 
43 356 
43 379 
43 393 
43 403 
43 428 
43 448 
43 456 
43 471 
43 495 
43 509 
43 515 
44 267 
44 277 
44 300 
44 321 
44 322 
44 350 
44 355 
44 378 
44 391 
44 404 
44 422 
44 445 
44 463 
44 473 
44 488 
44 512 
44 515 
45 269 
45 276 
45 295 
45 312 
45 323 
45 351 
45 354 
45 384 
45 396 
45 405 
45 425 
45 443 
45 462 
45 470 
45 497 
45 506 
45 515 
46 261 
46 283 
46 305 
46 316 
46 330 
46 342 
46 368 
46 370 
46 392 
46 413 
46 430 
46 436 
46 457 
46 479 
46 487 
46 499 
46 515 
47 270 
47 278 
47 290 
47 314 
47 332 
47 347 
47 359 
47 385 
47 387 
47 409 
47 421 
47 447 
47 461 
47 468 
47 496 
47 504 
47 515 
48 271 
48 281 
48 291 
48 320 
48 327 
48 349 
48 364 
48 376 
48 386 
48 406 
48 420 
48 446 
48 459 
48 469 
48 490 
48 513 
48 515 
49 258 
49 279 
49 299 
49 319 
49 328 
49 345 
49 356 
49 378 
49 396 
49 413 
49 421 
49 446 
49 464 
49 481 
49 483 
49 502 
49 516 
50 268 
50 275 
50 302 
50 317 
50 336 
50 340 
50 361 
50 385 
50 386 
50 415 
50 422 
50 443 
50 456 
50 474 
50 487 
50 501 
50 516 
51 272 
51 289 
51 292 
51 310 
51 332 
51 350 
51 363 
51 371 
51 392 
51 405 
51 429 
51 441 
51 450 
51 471 
51 490 
51 511 
51 516 
52 264 
52 282 
52 297 
52 309 
52 322 
52 347 
52 366 
52 375 
52 400 
52 406 
52 431 
52 436 
52 460 
52 467 
52 497 
52 509 
52 516 
53 269 
53 286 
53 291 
53 316 
53 326 
53 353 
53 362 
53 372 
53 399 
53 402 
53 432 
53 439 
53 453 
53 473 
53 491 
53 504 
53 516 
54 261 
54 281 
54 298 
54 312 
54 335 
54 343 
54 355 
54 379 
54 390 
54 416 
54 418 
54 449 
54 461 
54 478 
54 484 
54 508 
54 516 
55 270 
55 285 
55 300 
55 307 
55 324 
55 352 
55 360 
55 374 
55 395 
55 407 
55 433 
55 434 
55 457 
55 469 
55 495 
55 506 
55 516 
56 271 
56 283 
56 295 
56 306 
56 325 
56 346 
56 369 
56 377 
56 397 
56 412 
56 424 
56 435 
56 454 
56 468 
56 494 
56 512 
56 516 
57 273 
57 288 
57 294 
57 308 
57 323 
57 349 
57 367 
57 380 
57 394 
57 409 
57 430 
57 437 
57 455 
57 466 
57 488 
57 507 
57 516 
58 259 
58 284 
58 301 
58 318 
58 337 
58 342 
58 357 
58 384 
58 391 
58 411 
58 420 
58 447 
58 458 
58 472 
58 482 
58 505 
58 516 
59 262 
59 276 
59 305 
59 320 
59 333 
59 339 
59 359 
59 382 
59 389 
59 408 
59 428 
59 442 
59 463 
59 475 
59 489 
59 498 
59 516 
60 263 
60 274 
60 303 
60 315 
60 330 
60 341 
60 358 
60 376 
60 387 
60 414 
60 425 
60 445 
60 465 
60 480 
60 492 
60 500 
60 516 
61 265 
61 277 
61 296 
61 314 
61 331 
61 338 
61 364 
61 383 
61 388 
61 417 
61 423 
61 448 
61 462 
61 477 
61 486 
61 499 
61 516 
62 260 
62 278 
62 304 
62 321 
62 334 
62 348 
62 354 
62 381 
62 393 
62 410 
62 419 
62 440 
62 459 
62 479 
62 485 
62 503 
62 516 
63 266 
63 280 
63 293 
63 313 
63 327 
63 351 
63 365 
63 370 
63 401 
63 404 
63 427 
63 438 
63 451 
63 476 
63 496 
63 510 
63 516 
64 267 
64 287 
64 290 
64 311 
64 329 
64 344 
64 368 
64 373 
64 398 
64 403 
64 426 
64 444 
64 452 
64 470 
64 493 
64 513 
64 516 
65 258 
65 284 
65 304 
65 312 
65 333 
65 341 
65 366 
65 383 
65 401 
65 403 
65 422 
65 439 
65 457 
65 468 
65 490 
65 507 
65 517 
66 263 
66 275 
66 305 
66 314 
66 334 
66 345 
66 365 
66 379 
66 400 
66 412 
66 420 
66 434 
66 453 
66 470 
66 488 
66 511 
66 517 
67 267 
67 286 
67 292 
67 313 
67 323 
67 346 
67 364 
67 375 
67 390 
67 413 
67 433 
67 447 
67 456 
67 480 
67 485 
67 498 
67 517 
68 271 
68 285 
68 294 
68 309 
68 332 
68 344 
68 355 
68 370 
68 388 
68 414 
68 432 
68 443 
68 458 
68 481 
68 489 
68 503 
68 517 
69 264 
69 288 
69 300 
69 306 
69 326 
69 351 
69 356 
69 373 
69 387 
69 417 
69 429 
69 442 
69 459 
69 478 
69 487 
69 505 
69 517 
70 265 
70 276 
70 302 
70 315 
70 337 
70 343 
70 368 
70 378 
70 397 
70 406 
70 419 
70 437 
70 450 
70 476 
70 495 
70 504 
70 517 
71 260 
71 281 
71 299 
71 318 
71 330 
71 339 
71 360 
71 385 
71 399 
71 405 
71 423 
71 438 
71 460 
71 466 
71 493 
71 512 
71 517 
72 266 
72 289 
72 291 
72 311 
72 324 
72 347 
72 358 
72 377 
72 396 
72 416 
72 430 
72 440 
72 463 
72 477 
72 482 
72 501 
72 517 
73 268 
73 274 
73 296 
73 320 
73 335 
73 342 
73 363 
73 381 
73 394 
73 407 
73 421 
73 435 
73 452 
73 473 
73 497 
73 510 
73 517 
74 269 
74 287 
74 293 
74 310 
74 322 
74 352 
74 359 
74 380 
74 393 
74 411 
74 424 
74 446 
74 465 
74 474 
74 484 
74 499 
74 517 
75 261 
75 278 
75 301 
75 319 
75 336 
75 338 
75 369 
75 376 
75 398 
75 404 
75 428 
75 441 
75 455 
75 467 
75 491 
75 506 
75 517 
76 270 
76 283 
76 297 
76 308 
76 327 
76 353 
76 354 
76 371 
76 389 
76 415 
76 426 
76 445 
76 464 
76 472 
76 486 
76 508 
76 517 
77 272 
77 280 
77 290 
77 316 
77 325 
77 349 
77 361 
77 374 
77 391 
77 410 
77 431 
77 449 
77 462 
77 475 
77 483 
77 500 
77 517 
78 273 
78 282 
78 295 
78 307 
78 329 
78 350 
78 357 
78 372 
78 386 
78 408 
78 427 
78 448 
78 461 
78 479 
78 492 
78 502 
78 517 
79 259 
79 279 
79 298 
79 321 
79 331 
79 340 
79 367 
79 382 
79 392 
79 402 
79 425 
79 444 
79 454 
79 469 
79 496 
79 509 
79 517 
80 262 
80 277 
80 303 
80 317 
80 328 
80 348 
80 362 
80 384 
80 395 
80 409 
80 418 
80 436 
80 451 
80 471 
80 494 
80 513 
80 517 
81 258 
81 281 
81 301 
81 321 
81 324 
81 346 
81 363 
81 380 
81 389 
81 414 
81 431 
81 448 
81 451 
81 470 
81 487 
81 504 
81 518 
82 262 
82 275 
82 296 
82 315 
82 327 
82 350 
82 369 
82 373 
82 396 
82 410 
82 432 
82 447 
82 457 
82 466 
82 484 
82 509 
82 518 
83 266 
83 287 
83 292 
83 316 
83 333 
83 338 
83 357 
83 385 
83 395 
83 406 
83 425 
83 435 
83 464 
83 478 
83 488 
83 503 
83 518 
84 270 
84 288 
84 295 
84 309 
84 328 
84 342 
84 364 
84 379 
84 401 
84 402 
84 419 
84 441 
84 463 
84 474 
84 493 
84 500 
84 518 
85 263 
85 277 
85 302 
85 320 
85 326 
85 344 
85 367 
85 371 
85 393 
85 413 
85 427 
85 449 
85 460 
85 468 
85 482 
85 506 
85 518 
86 264 
86 283 
86 294 
86 307 
86 334 
86 343 
86 361 
86 384 
86 399 
86 404 
86 421 
86 444 
86 465 
86 477 
86 490 
86 498 
86 518 
87 265 
87 274 
87 305 
87 317 
87 332 
87 351 
87 360 
87 372 
87 391 
87 416 
87 426 
87 446 
87 454 
87 467 
87 485 
87 507 
87 518 
88 260 
88 284 
88 298 
88 319 
88 322 
88 349 
88 368 
88 377 
88 387 
88 408 
88 433 
88 443 
88 453 
88 471 
88 486 
88 510 
88 518 
89 267 
89 280 
89 291 
89 310 
89 336 
89 341 
89 354 
89 382 
89 394 
89 412 
89 423 
89 436 
89 461 
89 481 
89 495 
89 505 
89 518 
90 268 
90 276 
90 303 
90 314 
90 329 
90 353 
90 366 
90 370 
90 390 
90 411 
90 429 
90 440 
90 455 
90 469 
90 483 
90 512 
90 518 
91 269 
91 289 
91 290 
91 313 
91 330 
91 340 
91 355 
91 383 
91 400 
91 407 
91 428 
91 437 
91 459 
91 472 
91 494 
91 502 
91 518 
92 261 
92 279 
92 304 
92 318 
92 323 
92 347 
92 362 
92 374 
92 386 
92 417 
92 424 
92 445 
92 452 
92 476 
92 489 
92 511 
92 518 
93 271 
93 282 
93 300 
93 308 
93 337 
93 345 
93 359 
93 381 
93 392 
93 403 
93 418 
93 438 
93 462 
93 480 
93 491 
93 501 
93 518 
94 272 
94 286 
94 293 
94 311 
94 331 
94 339 
94 356 
94 376 
94 397 
94 409 
94 422 
94 434 
94 458 
94 479 
94 497 
94 508 
94 518 
95 273 
95 285 
95 297 
95 306 
95 335 
95 348 
95 358 
95 378 
95 398 
95 405 
95 420 
95 439 
95 456 
95 475 
95 496 
95 499 
95 518 
96 259 
96 278 
96 299 
96 312 
96 325 
96 352 
96 365 
96 375 
96 388 
96 415 
96 430 
96 442 
96 450 
96 473 
96 492 
96 513 
96 518 
97 258 
97 274 
97 290 
97 306 
97 322 
97 338 
97 354 
97 370 
97 386 
97 402 
97 418 
97 434 
97 450 
97 466 
97 482 
97 498 
97 519 
98 259 
98 275 
98 291 
98 307 
98 323 
98 339 
98 355 
98 371 
98 387 
98 403 
98 419 
98 435 
98 451 
98 467 
98 483 
98 499 
98 519 
99 260 
99 276 
99 292 
99 308 
99 324 
99 340 
99 356 
99 372 
99 388 
99 404 
99 420 
99 436 
99 452 
99 468 
99 484 
99 500 
99 519 
100 261 
100 277 
100 293 
100 309 
100 325 
100 341 
100 357 
100 373 
100 389 
100 405 
100 421 
100 437 
100 453 
100 469 
100 485 
100 501 
100 519 
101 262 
101 278 
101 294 
101 310 
101 326 
101 342 
101 358 
101 374 
101 390 
101 406 
101 422 
101 438 
101 454 
101 470 
101 486 
101 502 
101 519 
102 263 
102 279 
102 295 
102 311 
102 327 
102 343 
102 359 
102 375 
102 391 
102 407 
102 423 
102 439 
102 455 
102 471 
102 487 
102 503 
102 519 
103 264 
103 280 
103 296 
103 312 
103 328 
103 344 
103 360 
103 376 
103 392 
103 408 
103 424 
103 440 
103 456 
103 472 
103 488 
103 504 
103 519 
104 265 
104 281 
104 297 
104 313 
104 329 
104 345 
104 361 
104 377 
104 393 
104 409 
104 425 
104 441 
104 457 
104 473 
104 489 
104 505 
104 519 
105 266 
105 282 
105 298 
105 314 
105 330 
105 346 
105 362 
105 378 
105 394 
105 410 
105 426 
105 442 
105 458 
105 474 
105 490 
105 506 
105 519 
106 267 
106 283 
106 299 
106 315 
106 331 
106 347 
106 363 
106 379 
106 395 
106 411 
106 427 
106 443 
106 459 
106 475 
106 491 
106 507 
106 519 
107 268 
107 284 
107 300 
107 316 
107 332 
107 348 
107 364 
107 380 
107 396 
107 412 
107 428 
107 444 
107 460 
107 476 
107 492 
107 508 
107 519 
108 269 
108 285 
108 301 
108 317 
108 333 
108 349 
108 365 
108 381 
108 397 
108 413 
108 429 
108 445 
108 461 
108 477 
108 493 
108 509 
108 519 
109 270 
109 286 
109 302 
109 318 
109 334 
109 350 
109 366 
109 382 
109 398 
109 414 
109 430 
109 446 
109 462 
109 478 
109 494 
109 510 
109 519 
110 271 
110 287 
110 303 
110 319 
110 335 
110 351 
110 367 
110 383 
110 399 
110 415 
110 431 
110 447 
110 463 
110 479 
110 495 
110 511 
110 519 
111 272 
111 288 
111 304 
111 320 
111 336 
111 352 
111 368 
111 384 
111 400 
111 416 
111 432 
111 448 
111 464 
111 480 
111 496 
111 512 
111 519 
112 273 
112 289 
112 305 
112 321 
112 337 
112 353 
112 369 
112 385 
112 401 
112 417 
112 433 
112 449 
112 465 
112 481 
112 497 
112 513 
112 519 
113 258 
113 280 
113 300 
113 320 
113 329 
113 340 
113 362 
113 379 
113 397 
113 405 
113 430 
113 447 
113 465 
113 467 
113 486 
113 503 
113 520 
114 273 
114 275 
114 298 
114 311 
114 333 
114 351 
114 364 
114 374 
114 393 
114 414 
114 421 
114 436 
114 450 
114 472 
114 491 
114 512 
114 520 
115 265 
115 283 
115 292 
115 318 
115 322 
115 348 
115 367 
115 376 
115 401 
115 407 
115 432 
115 442 
115 461 
115 470 
115 483 
115 501 
115 520 
116 269 
116 278 
116 303 
116 309 
116 337 
116 346 
116 356 
116 371 
116 386 
116 416 
116 423 
116 444 
116 457 
116 475 
116 488 
116 510 
116 520 
117 259 
117 289 
117 295 
117 314 
117 326 
117 341 
117 368 
117 381 
117 395 
117 404 
117 431 
117 446 
117 456 
117 466 
117 489 
117 508 
117 520 
118 262 
118 285 
118 293 
118 319 
118 323 
118 343 
118 366 
118 385 
118 392 
118 412 
118 426 
118 448 
118 459 
118 473 
118 482 
118 500 
118 520 
119 263 
119 282 
119 291 
119 321 
119 325 
119 342 
119 360 
119 383 
119 398 
119 409 
119 429 
119 443 
119 464 
119 476 
119 484 
119 498 
119 520 
120 264 
120 274 
120 304 
120 316 
120 331 
120 350 
120 359 
120 377 
120 390 
120 415 
120 420 
120 437 
120 451 
120 481 
120 493 
120 506 
120 520 
121 260 
121 286 
121 297 
121 315 
121 332 
121 338 
121 365 
121 384 
121 394 
121 403 
121 424 
121 449 
121 463 
121 469 
121 487 
121 502 
121 520 
122 266 
122 279 
122 305 
122 307 
122 335 
122 349 
122 354 
122 373 
122 388 
122 411 
122 422 
122 441 
122 460 
122 480 
122 494 
122 504 
122 520 
123 267 
123 281 
123 302 
123 308 
123 328 
123 352 
123 357 
123 370 
123 387 
123 410 
123 428 
123 439 
123 454 
123 477 
123 497 
123 511 
123 520 
124 268 
124 288 
124 290 
124 312 
124 324 
124 345 
124 369 
124 382 
124 399 
124 406 
124 427 
124 445 
124 458 
124 471 
124 485 
124 499 
124 520 
125 261 
125 287 
125 294 
125 317 
125 327 
125 339 
125 363 
125 378 
125 400 
125 402 
125 433 
125 440 
125 462 
125 468 
125 492 
125 505 
125 520 
126 270 
126 276 
126 299 
126 313 
126 336 
126 344 
126 358 
126 380 
126 391 
126 417 
126 418 
126 435 
126 453 
126 479 
126 490 
126 509 
126 520 
127 271 
127 277 
127 301 
127 310 
127 330 
127 353 
127 361 
127 375 
127 396 
127 408 
127 419 
127 434 
127 452 
127 478 
127 496 
127 507 
127 520 
128 272 
128 284 
128 296 
128 306 
128 334 
128 347 
128 355 
128 372 
128 389 
128 413 
128 425 
128 438 
128 455 
128 474 
128 495 
128 513 
128 520 
129 258 
129 286 
129 294 
129 314 
129 335 
129 352 
129 369 
129 371 
129 391 
129 408 
129 425 
129 436 
129 459 
129 476 
129 493 
129 501 
129 521 
130 271 
130 275 
130 304 
130 313 
130 322 
130 342 
130 356 
130 382 
130 395 
130 405 
130 426 
130 449 
130 455 
130 477 
130 492 
130 504 
130 521 
131 263 
131 285 
131 292 
131 312 
131 331 
131 353 
131 368 
131 380 
131 386 
131 410 
131 421 
131 438 
131 463 
131 467 
131 494 
131 505 
131 521 
132 267 
132 284 
132 305 
132 309 
132 327 
132 340 
132 358 
132 381 
132 399 
132 409 
132 424 
132 448 
132 450 
132 478 
132 483 
132 506 
132 521 
133 272 
133 281 
133 303 
133 307 
133 326 
133 338 
133 359 
133 378 
133 401 
133 412 
133 430 
133 443 
133 452 
133 472 
133 485 
133 509 
133 521 
134 273 
134 277 
134 299 
134 316 
134 324 
134 343 
134 354 
134 376 
134 400 
134 403 
134 429 
134 447 
134 454 
134 474 
134 489 
134 510 
134 521 
135 259 
135 287 
135 297 
135 320 
135 334 
135 346 
135 360 
135 370 
135 396 
135 417 
135 422 
135 437 
135 461 
135 471 
135 491 
135 500 
135 521 
136 262 
136 282 
136 290 
136 318 
136 336 
136 351 
136 363 
136 377 
136 388 
136 413 
136 419 
136 439 
136 465 
136 469 
136 488 
136 508 
136 521 
137 264 
137 276 
137 301 
137 311 
137 325 
137 348 
137 355 
137 385 
137 394 
137 402 
137 427 
137 446 
137 457 
137 480 
137 486 
137 511 
137 521 
138 265 
138 288 
138 291 
138 319 
138 330 
138 350 
138 365 
138 374 
138 389 
138 411 
138 418 
138 444 
138 456 
138 468 
138 497 
138 503 
138 521 
139 260 
139 280 
139 295 
139 317 
139 337 
139 347 
139 367 
139 373 
139 390 
139 414 
139 428 
139 434 
139 464 
139 473 
139 490 
139 499 
139 521 
140 266 
140 278 
140 302 
140 306 
140 329 
140 339 
140 364 
140 384 
140 392 
140 407 
140 431 
140 445 
140 453 
140 481 
140 484 
140 507 
140 521 
141 268 
141 283 
141 293 
141 321 
141 333 
141 344 
141 362 
141 375 
141 387 
141 416 
141 420 
141 441 
141 462 
141 466 
141 495 
141 502 
141 521 
142 269 
142 279 
142 296 
142 308 
142 332 
142 341 
142 361 
142 379 
142 398 
142 406 
142 433 
142 442 
142 451 
142 479 
142 482 
142 512 
142 521 
143 261 
143 289 
143 300 
143 315 
143 328 
143 349 
143 366 
143 372 
143 393 
143 415 
143 423 
143 435 
143 458 
143 470 
143 496 
143 498 
143 521 
144 270 
144 274 
144 298 
144 310 
144 323 
144 345 
144 357 
144 383 
144 397 
144 404 
144 432 
144 440 
144 460 
144 475 
144 487 
144 513 
144 521 
145 258 
145 287 
145 295 
145 315 
145 336 
145 353 
145 355 
145 374 
145 392 
145 409 
145 420 
145 442 
145 460 
145 477 
145 485 
145 510 
145 522 
146 270 
146 275 
146 301 
146 316 
146 329 
146 341 
146 367 
146 378 
146 388 
146 416 
146 424 
146 438 
146 459 
146 471 
146 497 
146 498 
146 522 
147 262 
147 288 
147 292 
147 321 
147 335 
147 347 
147 361 
147 370 
147 397 
147 403 
147 423 
147 446 
147 453 
147 472 
147 492 
147 506 
147 522 
148 266 
148 281 
148 296 
148 309 
148 323 
148 348 
148 368 
148 382 
148 391 
148 415 
148 429 
148 434 
148 465 
148 468 
148 491 
148 502 
148 522 
149 271 
149 274 
149 299 
149 311 
149 326 
149 340 
149 366 
149 384 
149 389 
149 410 
149 433 
149 441 
149 461 
149 476 
149 488 
149 499 
149 522 
150 272 
150 278 
150 305 
150 308 
150 322 
150 343 
150 362 
150 383 
150 396 
150 414 
150 427 
150 435 
150 456 
150 469 
150 493 
150 505 
150 522 
151 273 
151 276 
151 304 
151 310 
151 327 
151 338 
151 360 
151 379 
151 387 
151 413 
151 431 
151 444 
151 458 
151 473 
151 494 
151 501 
151 522 
152 259 
152 286 
152 300 
152 317 
152 330 
152 344 
152 354 
152 377 
152 401 
152 406 
152 421 
152 448 
152 455 
152 475 
152 484 
152 511 
152 522 
153 263 
153 283 
153 290 
153 319 
153 337 
153 352 
153 364 
153 372 
153 394 
153 405 
153 422 
153 440 
153 451 
153 478 
153 489 
153 509 
153 522 
154 264 
154 277 
154 298 
154 313 
154 332 
154 339 
154 369 
154 381 
154 386 
154 411 
154 430 
154 439 
154 464 
154 470 
154 495 
154 500 
154 522 
155 265 
155 282 
155 293 
155 312 
155 334 
155 349 
155 358 
155 371 
155 395 
155 402 
155 428 
155 447 
155 452 
155 481 
155 487 
155 512 
155 522 
156 260 
156 289 
156 294 
156 320 
156 331 
156 351 
156 357 
156 375 
156 398 
156 412 
156 418 
156 445 
156 457 
156 474 
156 483 
156 504 
156 522 
157 267 
157 279 
157 303 
157 306 
157 324 
157 342 
157 365 
157 385 
157 393 
157 408 
157 432 
157 437 
157 462 
157 467 
157 490 
157 508 
157 522 
158 268 
158 285 
158 291 
158 318 
158 328 
158 346 
158 359 
158 373 
158 400 
158 404 
158 425 
158 449 
158 450 
158 479 
158 486 
158 507 
158 522 
159 269 
159 284 
159 302 
159 307 
159 325 
159 345 
159 363 
159 376 
159 390 
159 417 
159 426 
159 436 
159 463 
159 466 
159 496 
159 503 
159 522 
160 261 
160 280 
160 297 
160 314 
160 333 
160 350 
160 356 
160 380 
160 399 
160 407 
160 419 
160 443 
160 454 
160 480 
160 482 
160 513 
160 522 
161 258 
161 276 
161 293 
161 307 
161 330 
161 347 
161 364 
161 381 
161 398 
161 415 
161 432 
161 449 
161 454 
161 471 
161 488 
161 505 
161 523 
162 261 
162 275 
162 290 
162 308 
162 331 
162 346 
162 358 
162 384 
162 401 
162 408 
162 429 
162 446 
162 460 
162 473 
162 495 
162 503 
162 523 
163 259 
163 277 
163 292 
163 306 
163 336 
163 349 
163 359 
163 379 
163 399 
163 414 
163 426 
163 440 
163 457 
163 476 
163 497 
163 502 
163 523 
164 260 
164 274 
164 291 
164 309 
164 333 
164 352 
164 361 
164 378 
164 392 
164 417 
164 427 
164 447 
164 455 
164 470 
164 494 
164 508 
164 523 
165 270 
165 280 
165 305 
165 319 
165 326 
165 348 
165 363 
165 375 
165 386 
165 403 
165 425 
165 437 
165 458 
165 477 
165 484 
165 512 
165 523 
166 271 
166 289 
166 296 
166 318 
166 329 
166 343 
166 365 
166 380 
166 387 
166 402 
166 422 
166 436 
166 464 
166 475 
166 485 
166 506 
166 523 
167 272 
167 283 
167 301 
167 314 
167 323 
167 340 
167 360 
167 373 
167 393 
167 406 
167 418 
167 439 
167 463 
167 481 
167 492 
167 510 
167 523 
168 273 
168 287 
168 302 
168 312 
168 332 
168 342 
168 362 
168 377 
168 389 
168 404 
168 423 
168 434 
168 459 
168 480 
168 483 
168 509 
168 523 
169 262 
169 279 
169 300 
169 313 
169 334 
169 353 
169 357 
169 376 
169 394 
169 416 
169 431 
169 443 
169 450 
169 468 
169 493 
169 499 
169 523 
170 263 
170 278 
170 297 
170 316 
170 328 
170 351 
170 355 
170 382 
170 397 
170 411 
170 433 
170 448 
170 452 
170 466 
170 490 
170 501 
170 523 
171 264 
171 286 
171 303 
171 321 
171 327 
171 345 
171 368 
171 374 
171 388 
171 405 
171 428 
171 435 
171 461 
171 474 
171 482 
171 507 
171 523 
172 265 
172 284 
172 295 
172 310 
172 335 
172 344 
172 356 
172 385 
172 400 
172 410 
172 430 
172 445 
172 451 
172 469 
172 491 
172 498 
172 523 
173 266 
173 285 
173 299 
173 320 
173 322 
173 341 
173 369 
173 372 
173 390 
173 409 
173 419 
173 444 
173 462 
173 472 
173 487 
173 511 
173 523 
174 267 
174 288 
174 298 
174 317 
174 325 
174 338 
174 366 
174 371 
174 396 
174 407 
174 420 
174 438 
174 465 
174 479 
174 489 
174 504 
174 523 
175 268 
175 281 
175 294 
175 311 
175 337 
175 350 
175 354 
175 383 
175 395 
175 413 
175 424 
175 442 
175 453 
175 467 
175 496 
175 500 
175 523 
176 269 
176 282 
176 304 
176 315 
176 324 
176 339 
176 367 
176 370 
176 391 
176 412 
176 421 
176 441 
176 456 
176 478 
176 486 
176 513 
176 523 
177 258 
177 283 
177 303 
177 311 
177 332 
177 349 
177 357 
177 382 
177 400 
177 417 
177 419 
177 438 
177 456 
177 473 
177 484 
177 506 
177 524 
178 269 
178 275 
178 300 
178 318 
178 335 
178 338 
178 368 
178 375 
178 389 
178 409 
178 427 
178 440 
178 454 
178 481 
178 490 
178 500 
178 524 
179 273 
179 278 
179 292 
179 320 
179 330 
179 345 
179 366 
179 373 
179 391 
179 402 
179 424 
179 443 
179 451 
179 477 
179 495 
179 508 
179 524 
180 265 
180 280 
180 298 
180 309 
180 324 
180 353 
180 359 
180 384 
180 398 
180 413 
180 422 
180 435 
180 459 
180 466 
180 492 
180 511 
180 524 
181 261 
181 282 
181 296 
181 313 
181 326 
181 352 
181 354 
181 385 
181 397 
181 414 
181 420 
181 444 
181 463 
181 471 
181 483 
181 507 
181 524 
182 270 
182 284 
182 291 
182 317 
182 331 
182 343 
182 369 
182 370 
182 393 
182 405 
182 431 
182 442 
182 452 
182 480 
182 488 
182 502 
182 524 
183 271 
183 279 
183 290 
183 315 
183 333 
183 348 
183 360 
183 371 
183 390 
183 404 
183 430 
183 448 
183 453 
183 474 
183 497 
183 505 
183 524 
184 272 
184 276 
184 294 
184 321 
184 328 
184 341 
184 365 
184 377 
184 386 
184 407 
184 426 
184 447 
184 460 
184 478 
184 491 
184 499 
184 524 
185 259 
185 285 
185 302 
185 316 
185 327 
185 347 
185 356 
185 383 
185 394 
185 408 
185 418 
185 441 
185 465 
185 470 
185 485 
185 512 
185 524 
186 262 
186 289 
186 304 
186 308 
186 325 
186 344 
186 364 
186 378 
186 399 
186 411 
186 425 
186 434 
186 461 
186 467 
186 487 
186 510 
186 524 
187 263 
187 287 
187 299 
187 306 
187 323 
187 350 
187 361 
187 381 
187 401 
187 416 
187 428 
187 436 
187 458 
187 469 
187 486 
187 504 
187 524 
188 264 
188 281 
188 293 
188 314 
188 336 
188 342 
188 367 
188 372 
188 396 
188 403 
188 433 
188 445 
188 450 
188 475 
188 494 
188 503 
188 524 
189 260 
189 288 
189 305 
189 310 
189 329 
189 346 
189 355 
189 376 
189 395 
189 415 
189 421 
189 439 
189 462 
189 476 
189 482 
189 509 
189 524 
190 266 
190 277 
190 297 
190 312 
190 337 
190 340 
190 363 
190 374 
190 387 
190 412 
190 432 
190 446 
190 455 
190 479 
190 493 
190 498 
190 524 
191 267 
191 274 
191 295 
191 319 
191 334 
191 339 
191 362 
191 380 
191 388 
191 406 
191 429 
191 449 
191 457 
191 472 
191 496 
191 501 
191 524 
192 268 
192 286 
192 301 
192 307 
192 322 
192 351 
192 358 
192 379 
192 392 
192 410 
192 423 
192 437 
192 464 
192 468 
192 489 
192 513 
192 524 
193 258 
193 285 
193 305 
193 313 
193 325 
193 350 
193 367 
193 384 
193 387 
193 406 
193 423 
193 440 
193 452 
193 474 
193 491 
193 508 
193 525 
194 267 
194 275 
194 294 
194 312 
194 330 
194 348 
194 359 
194 372 
194 397 
194 417 
194 431 
194 441 
194 464 
194 469 
194 482 
194 510 
194 525 
195 271 
195 284 
195 292 
195 314 
195 328 
195 339 
195 354 
195 374 
195 398 
195 416 
195 427 
195 437 
195 465 
195 473 
195 487 
195 509 
195 525 
196 263 
196 286 
196 304 
196 309 
196 329 
196 349 
196 363 
196 385 
196 396 
196 404 
196 418 
196 442 
196 454 
196 472 
196 495 
196 499 
196 525 
197 268 
197 287 
197 298 
197 308 
197 326 
197 347 
197 365 
197 376 
197 391 
197 405 
197 419 
197 448 
197 457 
197 481 
197 494 
197 498 
197 525 
198 269 
198 274 
198 297 
198 321 
198 336 
198 343 
198 364 
198 373 
198 395 
198 408 
198 430 
198 438 
198 458 
198 468 
198 483 
198 511 
198 525 
199 261 
199 288 
199 302 
199 311 
199 322 
199 353 
199 360 
199 381 
199 388 
199 412 
199 425 
199 447 
199 451 
199 475 
199 490 
199 502 
199 525 
200 270 
200 279 
200 293 
200 320 
200 337 
200 338 
200 355 
200 377 
200 399 
200 410 
200 429 
200 436 
200 456 
200 470 
200 492 
200 507 
200 525 
201 272 
201 277 
201 295 
201 318 
201 333 
201 345 
201 358 
201 370 
201 394 
201 415 
201 433 
201 444 
201 459 
201 467 
201 484 
201 504 
201 525 
202 273 
202 281 
202 290 
202 317 
202 334 
202 341 
202 356 
202 375 
202 392 
202 411 
202 432 
202 435 
202 463 
202 476 
202 486 
202 506 
202 525 
203 259 
203 283 
203 296 
203 310 
203 324 
203 351 
203 366 
203 378 
203 386 
203 409 
203 428 
203 449 
203 453 
203 480 
203 493 
203 503 
203 525 
204 262 
204 280 
204 299 
204 307 
204 332 
204 346 
204 368 
204 383 
204 393 
204 402 
204 420 
204 445 
204 455 
204 478 
204 497 
204 501 
204 525 
205 264 
205 278 
205 291 
205 315 
205 335 
205 340 
205 357 
205 380 
205 401 
205 413 
205 426 
205 434 
205 462 
205 471 
205 489 
205 512 
205 525 
206 265 
206 289 
206 301 
206 306 
206 327 
206 352 
206 362 
206 382 
206 390 
206 403 
206 421 
206 443 
206 460 
206 479 
206 488 
206 500 
206 525 
207 260 
207 282 
207 303 
207 316 
207 323 
207 344 
207 369 
207 379 
207 389 
207 407 
207 422 
207 446 
207 450 
207 477 
207 496 
207 505 
207 525 
208 266 
208 276 
208 300 
208 319 
208 331 
208 342 
208 361 
208 371 
208 400 
208 414 
208 424 
208 439 
208 461 
208 466 
208 485 
208 513 
208 525 
209 258 
209 288 
209 296 
209 316 
209 337 
209 339 
209 358 
209 375 
209 393 
209 404 
209 426 
209 443 
209 461 
209 469 
209 494 
209 511 
209 526 
210 266 
210 275 
210 295 
210 321 
210 332 
210 352 
210 366 
210 376 
210 399 
210 413 
210 418 
210 437 
210 452 
210 475 
210 486 
210 505 
210 526 
211 270 
211 281 
211 292 
211 315 
211 325 
211 351 
211 362 
211 381 
211 400 
211 408 
211 422 
211 444 
211 455 
211 481 
211 482 
211 499 
211 526 
212 262 
212 287 
212 301 
212 309 
212 331 
212 345 
212 354 
212 372 
212 387 
212 407 
212 430 
212 449 
212 456 
212 476 
212 490 
212 512 
212 526 
213 267 
213 276 
213 297 
213 318 
213 326 
213 349 
213 369 
213 383 
213 392 
213 416 
213 421 
213 434 
213 451 
213 474 
213 492 
213 503 
213 526 
214 268 
214 280 
214 304 
214 306 
214 330 
214 343 
214 357 
214 371 
214 388 
214 409 
214 433 
214 446 
214 463 
214 470 
214 491 
214 509 
214 526 
215 269 
215 277 
215 294 
215 319 
215 329 
215 347 
215 360 
215 382 
215 401 
215 410 
215 420 
215 435 
215 450 
215 480 
215 487 
215 508 
215 526 
216 261 
216 285 
216 303 
216 310 
216 334 
216 340 
216 364 
216 377 
216 391 
216 403 
216 427 
216 442 
216 464 
216 466 
216 497 
216 504 
216 526 
217 271 
217 278 
217 293 
217 317 
217 324 
217 350 
217 368 
217 379 
217 394 
217 417 
217 425 
217 439 
217 460 
217 472 
217 483 
217 498 
217 526 
218 272 
218 274 
218 300 
218 312 
218 327 
218 346 
218 367 
218 385 
218 398 
218 411 
218 419 
218 436 
218 453 
218 477 
218 489 
218 502 
218 526 
219 273 
219 279 
219 291 
219 314 
219 322 
219 344 
219 363 
219 384 
219 397 
219 415 
219 428 
219 438 
219 457 
219 478 
219 485 
219 500 
219 526 
220 259 
220 282 
220 305 
220 311 
220 328 
220 338 
220 361 
220 380 
220 390 
220 405 
220 432 
220 445 
220 459 
220 468 
220 495 
220 510 
220 526 
221 263 
221 289 
221 298 
221 307 
221 336 
221 348 
221 356 
221 370 
221 389 
221 406 
221 424 
221 447 
221 462 
221 473 
221 493 
221 507 
221 526 
222 264 
222 284 
222 290 
222 320 
222 323 
222 353 
222 365 
222 378 
222 395 
222 414 
222 423 
222 441 
222 454 
222 479 
222 484 
222 501 
222 526 
223 265 
223 286 
223 299 
223 308 
223 333 
223 342 
223 355 
223 373 
223 386 
223 412 
223 431 
223 440 
223 465 
223 471 
223 496 
223 506 
223 526 
224 260 
224 283 
224 302 
224 313 
224 335 
224 341 
224 359 
224 374 
224 396 
224 402 
224 429 
224 448 
224 458 
224 467 
224 488 
224 513 
224 526 
225 258 
225 277 
225 291 
225 308 
225 334 
225 351 
225 368 
225 385 
225 390 
225 407 
225 424 
225 441 
225 458 
225 475 
225 492 
225 509 
225 527 
226 260 
226 275 
226 293 
226 306 
226 328 
226 353 
226 363 
226 383 
226 391 
226 406 
226 430 
226 444 
226 461 
226 480 
226 489 
226 506 
226 527 
227 261 
227 274 
227 292 
227 307 
227 337 
227 344 
227 365 
227 382 
227 396 
227 409 
227 431 
227 439 
227 459 
227 474 
227 486 
227 512 
227 527 
228 259 
228 276 
228 290 
228 309 
228 335 
228 350 
228 362 
228 376 
228 393 
228 412 
228 433 
228 438 
228 464 
228 477 
228 487 
228 507 
228 527 
229 266 
229 283 
229 304 
229 317 
229 326 
229 345 
229 355 
229 380 
229 398 
229 408 
229 423 
229 447 
229 450 
229 469 
229 497 
229 500 
229 527 
230 267 
230 282 
230 301 
230 320 
230 332 
230 343 
230 356 
230 374 
230 401 
230 415 
230 425 
230 440 
230 453 
230 466 
230 494 
230 499 
230 527 
231 268 
231 278 
231 295 
231 313 
231 331 
231 349 
231 360 
231 378 
231 389 
231 403 
231 432 
231 436 
231 465 
231 478 
231 482 
231 511 
231 527 
232 269 
232 288 
232 299 
232 314 
232 327 
232 348 
232 357 
232 377 
232 392 
232 414 
232 422 
232 449 
232 452 
232 467 
232 495 
232 498 
232 527 
233 270 
233 289 
233 303 
233 312 
233 322 
233 339 
233 361 
233 373 
233 394 
233 413 
233 420 
233 448 
233 454 
233 476 
233 491 
233 503 
233 527 
234 271 
234 280 
234 302 
234 321 
234 323 
234 338 
234 358 
234 372 
234 400 
234 411 
234 421 
234 442 
234 457 
234 471 
234 493 
234 508 
234 527 
235 272 
235 285 
235 298 
235 315 
235 329 
235 342 
235 354 
235 375 
235 399 
235 417 
235 428 
235 446 
235 451 
235 468 
235 488 
235 501 
235 527 
236 273 
236 286 
236 296 
236 319 
236 325 
236 340 
236 359 
236 370 
236 395 
236 416 
236 419 
236 445 
236 460 
236 470 
236 490 
236 505 
236 527 
237 262 
237 284 
237 297 
237 311 
237 330 
237 352 
237 367 
237 379 
237 386 
237 404 
237 429 
237 435 
237 462 
237 481 
237 485 
237 504 
237 527 
238 263 
238 281 
238 300 
238 310 
238 333 
238 347 
238 369 
238 384 
238 388 
238 402 
238 426 
238 437 
238 456 
238 479 
238 483 
238 510 
238 527 
239 264 
239 287 
239 305 
239 318 
239 324 
239 341 
239 364 
239 371 
239 397 
239 410 
239 418 
239 443 
239 455 
239 473 
239 496 
239 502 
239 527 
240 265 
240 279 
240 294 
240 316 
240 336 
240 346 
240 366 
240 381 
240 387 
240 405 
240 427 
240 434 
240 463 
240 472 
240 484 
240 513 
240 527 
241 258 
241 278 
241 298 
241 318 
241 327 
241 344 
241 361 
241 372 
241 395 
241 412 
241 429 
241 437 
241 463 
241 480 
241 497 
241 499 
241 528 
242 265 
242 275 
242 303 
242 320 
242 325 
242 347 
242 354 
242 380 
242 392 
242 404 
242 433 
242 439 
242 458 
242 478 
242 493 
242 502 
242 528 
243 269 
243 280 
243 292 
243 311 
243 334 
243 342 
243 369 
243 378 
243 387 
243 415 
243 418 
243 448 
243 460 
243 469 
243 489 
243 507 
243 528 
244 273 
244 283 
244 300 
244 309 
244 336 
244 339 
244 365 
244 383 
244 390 
244 410 
244 425 
244 446 
244 452 
244 471 
244 482 
244 504 
244 528 
245 260 
245 279 
245 301 
245 312 
245 326 
245 350 
245 364 
245 370 
245 400 
245 409 
245 426 
245 435 
245 465 
245 475 
245 495 
245 501 
245 528 
246 266 
246 286 
246 290 
246 310 
246 328 
246 343 
246 367 
246 381 
246 389 
246 417 
246 420 
246 443 
246 457 
246 467 
246 492 
246 512 
246 528 
247 267 
247 289 
247 293 
247 316 
247 335 
247 345 
247 360 
247 384 
247 386 
247 414 
247 419 
247 442 
247 455 
247 468 
247 486 
247 509 
247 528 
248 268 
248 277 
248 305 
248 315 
248 323 
248 352 
248 356 
248 377 
248 398 
248 402 
248 431 
248 438 
248 461 
248 472 
248 490 
248 503 
248 528 
249 261 
249 284 
249 299 
249 321 
249 329 
249 351 
249 359 
249 371 
249 394 
249 406 
249 432 
249 434 
249 456 
249 477 
249 494 
249 500 
249 528 
250 270 
250 282 
250 294 
250 306 
250 333 
250 340 
250 368 
250 376 
250 396 
250 411 
250 423 
250 449 
250 451 
250 473 
250 485 
250 511 
250 528 
251 271 
251 288 
251 297 
251 307 
251 331 
251 341 
251 362 
251 385 
251 391 
251 413 
251 428 
251 440 
251 450 
251 470 
251 484 
251 510 
251 528 
252 272 
252 287 
252 291 
252 313 
252 337 
252 348 
252 366 
252 379 
252 388 
252 408 
252 421 
252 445 
252 454 
252 466 
252 487 
252 506 
252 528 
253 259 
253 281 
253 304 
253 319 
253 332 
253 353 
253 358 
253 373 
253 397 
253 407 
253 427 
253 436 
253 462 
253 474 
253 488 
253 498 
253 528 
254 262 
254 274 
254 302 
254 314 
254 324 
254 349 
254 355 
254 375 
254 401 
254 405 
254 424 
254 444 
254 464 
254 479 
254 491 
254 505 
254 528 
255 263 
255 276 
255 296 
255 317 
255 322 
255 346 
255 357 
255 374 
255 399 
255 403 
255 430 
255 441 
255 459 
255 481 
255 496 
255 508 
255 528 
256 264 
256 285 
256 295 
256 308 
256 330 
256 338 
256 363 
256 382 
256 393 
256 416 
256 422 
256 447 
256 453 
256 476 
256 483 
256 513 
256 528 
